50, 1225
17, 12
34, 24
68, 48
42, 37
84, 74
168, 148
126, 111
6, 1
12, 2
24, 4
41, 36
82, 72
33, 28
66, 56
26, 21
52, 42
104, 84
52, 42
51, 46
102, 92
102, 92
12, 7
24, 14
48, 28
24, 14
53, 48
53, 48
55, 50
110, 100
165, 150
37, 32
74, 64
74, 64
21, 16
21, 16
18, 13
36, 26
54, 39
34, 29
46, 41
46, 41
32, 27
64, 54
96, 81
28, 23
56, 46
84, 69
39, 34
78, 68
156, 136
